23 25 
75 9 
22 72 
37 69 
28 66 
48 60 
13 24 
3 41 
51 13 
72 69 
53 79 
22 28 
11 74 
64 32 
91 55 
97 66 
80 72 
75 54 
44 13 
24 25 
79 72 
37 44 
96 40 
37 99 
5 10 
20 10 
41 42 
91 5 
68 7 
89 12 
63 86 
78 43 
58 6 
98 55 
71 22 
32 2 
94 21 
98 42 
13 36 
94 70 
98 14 
81 91 
9 24 
96 29 
31 38 
93 94 
24 72 
38 35 
30 36 
42 1 
